This is Ipopt version 3.12.12, running with linear solver mumps.
NOTE: Other linear solvers might be more efficient (see Ipopt documentation).

Number of nonzeros in equality constraint Jacobian...:   393010
Number of nonzeros in inequality constraint Jacobian.:    72000
Number of nonzeros in Lagrangian Hessian.............:   309001

Total number of variables............................:    57010
                     variables with only lower bounds:     6002
                variables with lower and upper bounds:    24008
                     variables with only upper bounds:        0
Total number of equality constraints.................:    57010
Total number of inequality constraints...............:    24000
        inequality constraints with only lower bounds:        0
   inequality constraints with lower and upper bounds:        0
        inequality constraints with only upper bounds:    24000

iter    objective    inf_pr   inf_du lg(mu)  ||d||  lg(rg) alpha_du alpha_pr  ls
   0  9.9999900e-03 1.90e-01 1.00e+00   0.0 0.00e+00    -  0.00e+00 0.00e+00   0
MUMPS returned INFO(1) = -9 and requires more memory, reallocating.  Attempt 1
  Increasing icntl[13] from 1000 to 2000.
MUMPS returned INFO(1) = -9 and requires more memory, reallocating.  Attempt 2
  Increasing icntl[13] from 2000 to 4000.
MUMPS returned INFO(1) = -9 and requires more memory, reallocating.  Attempt 3
  Increasing icntl[13] from 4000 to 8000.
   1  1.1093334e-02 1.89e-01 1.49e+03  -0.5 1.59e+00    -  1.99e-01 3.36e-03f  1
   2  1.1353356e-01 4.72e-02 1.42e+03  -1.2 2.86e-01    -  5.86e-02 7.51e-01h  1
   3  1.1775550e-01 4.51e-02 1.43e+03  -6.5 4.66e-01    -  2.41e-01 4.48e-02h  1
   4  2.4787604e-01 3.40e-02 6.18e+02  -1.2 8.23e-01    -  1.05e-01 2.46e-01h  1
   5  2.6457120e-01 3.21e-02 8.35e+02  -6.7 7.23e-01    -  2.34e-01 5.55e-02h  1
   6  4.1926862e-01 2.90e-02 7.99e+02  -1.0 1.75e+00    -  9.78e-02 9.56e-02h  1
   7  5.2198308e-01 2.57e-02 8.34e+02  -2.2 9.66e-01    -  2.38e-01 1.15e-01h  1
   8  8.4704459e-01 2.12e-02 5.69e+02  -6.9 1.86e+00    -  1.12e-01 1.75e-01h  1
   9  4.4749033e+00 9.62e-03 1.63e+04  -1.0 6.65e+00    -  1.89e-02 5.45e-01f  1
iter    objective    inf_pr   inf_du lg(mu)  ||d||  lg(rg) alpha_du alpha_pr  ls
  10  4.4923839e+00 9.46e-03 1.25e+04  -0.5 1.32e+00   0.0 2.77e-01 1.64e-02f  1
  11  9.5882063e+00 6.98e-03 1.05e+04  -0.3 1.96e+01    -  1.01e-01 2.60e-01f  1
  12  1.4697981e+01 3.54e-03 9.33e+03  -0.7 1.03e+01    -  1.29e-01 4.94e-01f  1
  13  1.5002603e+01 3.41e-03 7.94e+03  -6.7 8.46e+00    -  1.43e-01 3.91e-02h  1
  14  1.5021636e+01 3.37e-03 4.45e+04  -6.8 2.62e+00    -  2.15e-01 1.21e-02h  1
  15  1.9063219e+01 2.64e-03 3.45e+04  -0.5 1.79e+01    -  2.26e-01 2.25e-01f  1
  16  3.0449211e+01 2.40e-03 3.02e+04  -0.8 5.97e+01    -  1.32e-01 1.91e-01f  1
  17  1.9819467e+02 1.21e-03 3.15e+04  -0.2 2.66e+02    -  1.41e-01 6.31e-01f  1
  18  2.5253266e+02 1.64e-03 2.51e+04   0.3 7.29e+02    -  1.24e-01 7.45e-02f  1
  19  8.3950511e+02 7.47e-04 1.75e+04  -0.1 7.72e+02    -  2.16e-01 7.60e-01h  1
iter    objective    inf_pr   inf_du lg(mu)  ||d||  lg(rg) alpha_du alpha_pr  ls
  20  7.7100515e+02 5.82e-04 3.85e+03  -0.6 1.07e+02    -  1.00e+00 6.43e-01h  1
  21  6.6196033e+02 4.45e-04 1.25e+03  -6.5 2.30e+02    -  3.21e-01 4.74e-01f  1
  22  6.2136355e+02 4.16e-04 1.00e+04  -6.7 5.87e+02    -  1.11e-02 6.91e-02f  1
  23  3.9589867e+02 2.56e-04 1.12e+05  -0.5 5.61e+02    -  2.21e-02 4.02e-01f  1
  24  3.9589329e+02 2.55e-04 7.80e+04  -0.7 1.52e-01   1.3 3.12e-01 1.62e-01f  1
  25  3.9584796e+02 5.78e-04 2.73e+04   0.3 3.02e-01   1.8 1.00e+00 4.59e-01f  1
  26  3.1816610e+02 4.21e-04 1.32e+04   0.2 2.70e+02    -  1.00e+00 2.88e-01f  1
  27  1.4498807e+02 2.80e-04 8.13e+02  -0.3 1.87e+02    -  1.00e+00 9.25e-01h  1
  28  5.2508360e+01 6.69e-05 1.45e+02  -0.6 9.25e+01    -  1.00e+00 1.00e+00h  1
  29  3.7644704e+01 7.59e-05 3.04e+01  -0.7 1.49e+01    -  1.00e+00 1.00e+00h  1
iter    objective    inf_pr   inf_du lg(mu)  ||d||  lg(rg) alpha_du alpha_pr  ls
  30  2.4056637e+01 8.60e-05 2.46e+03  -1.2 1.89e+01    -  9.34e-01 8.35e-01H  1
  31  3.2179580e+01 7.92e-05 2.70e+01  -0.9 8.12e+00    -  1.00e+00 1.00e+00f  1
  32  2.2067863e+01 8.07e-05 7.68e+03  -1.6 1.83e+01    -  5.97e-01 7.92e-01H  1
  33  1.6251070e+01 7.40e-05 3.61e+03  -2.6 1.10e+01    -  5.30e-01 5.30e-01s 22
  34  3.3777378e+01 2.13e-04 1.86e+04  -1.1 1.75e+01    -  2.75e-01 1.00e+00f  1
  35  3.2632958e+01 1.73e-04 2.46e+04  -1.4 4.39e+00    -  2.44e-01 1.00e+00H  1
  36  3.5081539e+01 9.33e-05 1.36e+04  -1.4 2.45e+00    -  4.48e-01 1.00e+00f  1
  37  3.5078583e+01 3.26e-05 7.98e+00  -1.0 3.05e-02   1.3 1.00e+00 1.00e+00f  1
  38  3.7138131e+01 3.60e-05 9.89e+00  -1.6 6.36e-01    -  1.00e+00 1.00e+00H  1
  39  3.7137386e+01 3.01e-05 7.62e+00  -1.3 1.97e-02   0.8 1.00e+00 1.00e+00f  1
iter    objective    inf_pr   inf_du lg(mu)  ||d||  lg(rg) alpha_du alpha_pr  ls
  40  3.7137106e+01 3.14e-05 5.75e+02  -1.9 2.71e-02   1.2 9.26e-01 9.63e-01H  1
  41  3.7136976e+01 2.94e-05 3.47e+00  -1.5 7.25e-03   1.7 1.00e+00 1.00e+00f  1
  42  3.7135051e+01 3.03e-05 3.56e+02  -1.3 1.49e-02   1.2 9.27e-01 1.00e+00f  1
  43  3.7133816e+01 3.47e-05 2.89e+00  -1.5 8.32e-03   1.6 1.00e+00 1.00e+00h  1
  44  3.7130294e+01 8.50e-05 1.72e+03  -1.2 8.53e-02   1.1 1.00e+00 6.68e-01f  1
  45  3.7129421e+01 8.03e-05 7.92e+03  -1.3 1.03e-01   0.6 9.02e-01 6.87e-02f  3
  46  3.7125738e+01 7.69e-05 9.03e+03  -1.3 1.48e-01   0.2 1.00e+00 1.77e-01f  2
  47  7.0250470e+01 2.87e-05 1.16e+03  -1.3 3.31e+01    -  8.74e-01 1.00e+00f  1
  48  7.1972742e+01 2.83e-05 3.90e+02  -1.3 6.89e+00    -  3.28e-01 2.50e-01f  3
  49  7.1976393e+01 2.74e-05 8.52e-01  -1.3 1.17e-02   1.5 1.00e+00 1.00e+00f  1
iter    objective    inf_pr   inf_du lg(mu)  ||d||  lg(rg) alpha_du alpha_pr  ls
  50  7.1998304e+01 2.85e-05 8.57e+03  -2.0 6.89e-02   1.0 5.02e-01 7.86e-01H  1
  51  7.2012216e+01 2.71e-05 1.98e+04  -2.0 2.58e-02   1.4 4.35e-01 1.00e+00H  1
  52  7.2017912e+01 2.66e-05 1.95e+04  -2.0 5.70e-03   1.9 3.11e-01 1.00e+00f  1
  53  7.2020074e+01 2.66e-05 1.36e+04  -2.0 3.39e-02   1.4 2.48e-01 1.25e-01h  4
  54  7.2027098e+01 2.66e-05 2.22e+04  -2.0 8.06e-03   1.8 2.78e-01 1.00e+00H  1
  55  7.2028241e+01 2.66e-05 1.74e+04  -2.0 3.96e-02   1.3 1.71e-01 5.63e-02h  5
  56  7.2030227e+01 2.66e-05 1.44e+04  -2.0 7.94e-03   1.8 1.99e-01 2.50e-01h  3
  57  7.2032388e+01 2.66e-05 1.30e+04  -2.0 8.84e-02   1.3 9.55e-02 9.55e-02s 21
  58  7.2034298e+01 2.66e-05 1.02e+04  -2.0 9.67e-03   1.7 2.18e-01 2.18e-01s 21
  59  7.2035109e+01 2.66e-05 9.84e+03  -2.0 3.38e-01   1.2 3.09e-02 3.09e-02s 21
iter    objective    inf_pr   inf_du lg(mu)  ||d||  lg(rg) alpha_du alpha_pr  ls
  60  7.2037041e+01 2.66e-05 7.89e+03  -2.0 1.31e-02   1.7 1.98e-01 1.98e-01s 21
  61  7.2037962e+01 2.66e-05 5.93e+03  -2.0 3.70e-03   2.1 2.49e-01 2.49e-01s 21
  62  7.2040343e+01 2.66e-05 4.62e+03  -2.0 1.35e-02   1.6 2.21e-01 2.21e-01s 21
  63  7.2041519e+01 2.66e-05 3.29e+03  -2.0 4.08e-03   2.0 2.88e-01 2.88e-01s 21
  64  7.2044383e+01 2.66e-05 2.49e+03  -2.0 1.30e-02   1.6 2.43e-01 2.43e-01s 21
  65  7.2045746e+01 2.66e-05 1.73e+03  -2.0 4.45e-03   2.0 3.06e-01 3.06e-01s 21
  66  7.2049161e+01 2.66e-05 1.27e+03  -2.0 1.28e-02   1.5 2.68e-01 2.68e-01s 21
  67  7.2050723e+01 2.67e-05 8.53e+02  -2.0 4.79e-03   1.9 3.26e-01 3.26e-01s 21
  68r 7.2050723e+01 2.67e-05 1.00e+03  -2.0 0.00e+00   1.5 0.00e+00 0.00e+00R  1
  69r 7.1941567e+01 3.05e-05 6.64e+02  -2.0 4.24e-01    -  6.07e-01 2.57e-01f  1
iter    objective    inf_pr   inf_du lg(mu)  ||d||  lg(rg) alpha_du alpha_pr  ls
  70r 7.1641631e+01 4.27e-05 3.76e+02  -2.2 7.16e-01    -  6.08e-01 4.19e-01f  1
  71r 7.0789081e+01 4.09e-05 1.87e+02  -3.0 1.46e+00    -  6.80e-01 5.86e-01f  1
  72r 6.8863166e+01 4.08e-05 2.23e+02  -8.5 3.78e+00    -  7.58e-01 5.10e-01f  1
  73r 6.4965690e+01 3.46e-05 1.62e+02  -3.0 1.54e+02    -  2.34e-01 2.53e-02f  1
  74r 6.6939599e+01 6.98e-05 2.59e+02  -3.3 1.97e+00    -  3.25e-01 1.00e+00f  1
  75r 6.6472412e+01 2.84e-04 1.51e+02  -2.8 8.24e-01    -  3.02e-01 5.67e-01f  1
  76r 6.6858502e+01 2.69e-04 4.47e-02  -3.3 3.86e-01    -  1.00e+00 1.00e+00f  1
  77r 6.5438969e+01 2.91e-04 1.19e+02  -3.6 3.17e+00    -  9.98e-01 4.48e-01f  1
  78r 6.1670640e+01 5.32e-04 5.94e-02  -3.7 3.77e+00    -  1.00e+00 1.00e+00f  1
  79r 6.1280935e+01 6.71e-04 2.22e+00  -3.9 3.99e-01    -  1.00e+00 9.77e-01f  1
iter    objective    inf_pr   inf_du lg(mu)  ||d||  lg(rg) alpha_du alpha_pr  ls
  80r 5.9568354e+01 8.65e-04 6.86e+01  -4.0 2.23e+00    -  9.77e-01 7.69e-01f  1
  81r 5.8474161e+01 1.08e-03 4.12e+01  -4.3 1.31e+00    -  1.00e+00 8.38e-01f  1
  82r 5.7813871e+01 1.12e-03 6.11e+01  -3.9 2.86e+00    -  2.72e-01 2.31e-01f  1
  83r 5.7816266e+01 1.12e-03 1.56e+02  -4.2 1.42e+00    -  4.42e-01 1.69e-03h  8
  84r 5.7352439e+01 1.25e-03 2.42e+02  -4.2 1.67e+00    -  1.87e-02 2.78e-01f  1
  85r 5.6934431e+01 1.33e-03 7.57e+01  -4.6 1.41e+00    -  6.32e-01 2.96e-01f  1
  86r 5.6200751e+01 1.84e-03 1.37e+02  -9.0 6.34e+00    -  3.27e-02 1.16e-01f  1
  87r 5.3233640e+01 1.99e-03 1.98e+02  -2.8 9.58e+02    -  3.62e-03 3.10e-03f  1
  88r 5.3233640e+01 1.99e-03 5.04e+02  -4.0 1.12e+01    -  2.66e-02 2.17e-10h 28
  89r 5.3733593e+01 2.30e-03 4.04e+02  -3.9 5.20e+00    -  1.27e-01 9.61e-02f  1
iter    objective    inf_pr   inf_du lg(mu)  ||d||  lg(rg) alpha_du alpha_pr  ls
  90r 5.4308666e+01 1.19e-03 3.58e+02  -4.3 5.05e+00    -  1.14e-01 1.14e-01S 44
  91r 5.4434188e+01 1.30e-03 3.58e+02  -9.0 6.12e-01    -  1.08e-01 3.16e-01f  1
  92r 5.1362425e+01 4.15e-03 1.30e+02  -3.3 1.04e+03    -  1.30e-03 2.96e-03h  1
  93r 5.2356487e+01 1.30e-03 1.71e+02  -3.8 1.16e+01    -  4.98e-02 8.55e-02f  1
  94r 5.3213303e+01 1.18e-03 1.51e+02  -4.4 7.37e+00    -  1.16e-01 1.16e-01S 44
  95r 5.3213524e+01 1.18e-03 1.96e+02  -4.4 1.09e+00    -  1.19e-01 2.02e-04f 11
  96r 5.3213683e+01 1.18e-03 2.43e+02  -4.4 1.13e+00    -  2.88e-02 1.41e-04f 12
  97r 5.3213767e+01 1.18e-03 2.71e+02  -4.4 1.13e+00    -  1.72e-02 7.40e-05f 13
  98r 5.3213624e+01 1.72e-03 2.71e+02  -4.4 2.79e+00    -  1.52e-03 6.91e-04f  1
  99r 5.3213958e+01 1.72e-03 3.48e+02  -4.4 1.14e+00    -  4.79e-02 2.92e-04f 11
iter    objective    inf_pr   inf_du lg(mu)  ||d||  lg(rg) alpha_du alpha_pr  ls
 100r 5.3215066e+01 1.65e-03 3.46e+02  -4.4 1.00e+00    -  2.44e-04 1.11e-03f  3
 101r 5.3215066e+01 1.65e-03 4.45e+02  -4.4 1.15e+00    -  7.08e-02 1.77e-08h 25
 102r 5.3410309e+01 4.03e-03 3.69e+02  -4.4 1.15e+00    -  1.69e-01 1.69e-01S 45
 103r 5.3410329e+01 4.03e-03 7.63e+02  -4.4 1.06e+00    -  2.14e-01 1.90e-05h 14
 104r 5.3410356e+01 4.03e-03 9.24e+02  -4.4 1.12e+00    -  1.51e-01 2.40e-05h 15
 105r 5.3410379e+01 4.03e-03 7.03e+02  -4.4 1.15e+00    -  1.95e-01 2.04e-05h 15
 106r 5.3410421e+01 4.03e-03 9.24e+02  -4.4 1.19e+00    -  1.08e-01 3.55e-05h 14
 107r 5.3410460e+01 4.03e-03 7.40e+02  -4.4 1.21e+00    -  1.48e-01 3.18e-05h 15
 108r 5.3410487e+01 4.03e-03 9.24e+02  -4.4 1.23e+00    -  9.59e-02 2.20e-05h 15
 109r 5.3410532e+01 4.03e-03 7.34e+02  -4.4 1.24e+00    -  1.42e-01 3.60e-05h 15
iter    objective    inf_pr   inf_du lg(mu)  ||d||  lg(rg) alpha_du alpha_pr  ls
 110r 5.3883190e+01 8.18e-03 8.43e+02  -4.4 1.26e+00    -  9.51e-02 3.75e-01w  1
 111r 5.4453616e+01 1.18e-02 2.66e+02  -4.4 8.39e-01    -  6.49e-01 6.80e-01w  1
 112r 5.4776301e+01 1.19e-02 8.19e+01  -4.4 3.23e-01    -  8.46e-01 1.00e+00w  1
 113r 5.4673355e+01 1.29e-02 1.99e+01  -4.7 1.17e-01    -  1.00e+00 8.83e-01f  1
 114r 5.3703046e+01 1.31e-02 3.66e+01  -4.6 2.91e+00    -  3.11e-01 3.33e-01f  1
 115r 5.3034264e+01 1.27e-02 1.73e+02  -4.6 1.55e+00    -  3.05e-01 4.31e-01f  1
 116r 5.2280810e+01 1.24e-02 2.16e+02  -4.8 9.26e-01    -  6.05e-01 8.13e-01f  1
 117r 5.1752595e+01 1.22e-02 1.63e+02  -9.0 2.25e+00    -  3.58e-01 2.35e-01f  1
 118r 5.0893263e+01 1.15e-02 1.67e+02  -2.9 1.07e+03    -  5.63e-04 8.02e-04f  1
 119r 5.0896035e+01 1.15e-02 8.17e+02  -5.0 1.03e+01    -  8.87e-03 2.69e-04h  1
iter    objective    inf_pr   inf_du lg(mu)  ||d||  lg(rg) alpha_du alpha_pr  ls
 120r 5.0886849e+01 1.15e-02 8.14e+02  -9.0 3.30e+00    -  9.93e-02 2.78e-03f  1
 121r 5.0553916e+01 1.13e-02 8.13e+02  -4.0 1.45e+03    -  2.57e-04 2.29e-04f  1
 122r 5.0621296e+01 1.13e-02 8.05e+02  -5.0 6.67e+00    -  9.43e-03 1.01e-02h  1
 123r 5.0491959e+01 1.12e-02 7.73e+02  -5.2 3.21e+00    -  4.03e-02 4.02e-02f  1
 124r 5.0474265e+01 1.12e-02 7.66e+02  -9.0 6.41e+00    -  8.36e-02 2.76e-03f  1
 125r 5.0375230e+01 1.11e-02 7.82e+02  -3.1 1.27e+03    -  2.52e-04 7.78e-05h  1
 126r 5.0379585e+01 1.11e-02 7.82e+02  -5.0 1.04e+01    -  1.52e-03 4.18e-04h  2
 127r 5.0192238e+01 1.10e-02 7.40e+02  -5.0 3.20e+00    -  3.99e-02 5.86e-02f  1
 128r 4.9929556e+01 1.09e-02 6.74e+02  -9.0 3.07e+00    -  1.15e-01 8.54e-02f  1
 129r 4.9555685e+01 1.06e-02 5.70e+02  -2.9 1.19e+03    -  4.71e-05 3.15e-04f  1
iter    objective    inf_pr   inf_du lg(mu)  ||d||  lg(rg) alpha_du alpha_pr  ls
 130r 4.9556177e+01 1.06e-02 5.69e+02  -5.0 1.16e+01    -  4.94e-03 4.22e-05h  1
 131r 4.9508167e+01 1.06e-02 5.60e+02  -9.0 3.09e+00    -  5.80e-02 1.55e-02f  1
 132r 4.8733346e+01 9.97e-03 5.60e+02  -6.8 1.23e+03    -  3.62e-04 6.32e-04f  1
 133r 4.8581902e+01 9.85e-03 7.02e+02  -3.9 1.06e+02    -  1.90e-02 1.43e-03h  1
 134r 4.8888119e+01 1.01e-02 8.48e+02  -5.0 9.20e+00    -  1.91e-02 3.33e-02h  2
 135r 4.8835409e+01 1.00e-02 8.23e+02  -5.0 2.03e+00    -  9.99e-02 2.60e-02f  1
 136r 4.8220681e+01 9.63e-03 1.60e+03  -5.0 1.96e+00    -  2.54e-02 3.13e-01f  1
 137r 4.8080026e+01 9.53e-03 1.20e+03  -5.0 1.35e+00    -  2.25e-01 1.04e-01f  1
 138r 4.7978819e+01 9.54e-03 1.21e+03  -9.0 5.14e-01    -  1.08e-01 1.97e-01f  1
 139r 4.7764013e+01 9.37e-03 1.23e+03  -3.0 1.15e+03    -  4.01e-04 1.87e-04f  1
iter    objective    inf_pr   inf_du lg(mu)  ||d||  lg(rg) alpha_du alpha_pr  ls
 140r 4.7769816e+01 9.37e-03 1.82e+03  -5.1 1.29e+01    -  6.23e-03 4.50e-04h  1
 141r 4.7280265e+01 9.02e-03 1.60e+03  -5.1 2.75e+00    -  1.54e-01 1.78e-01f  1
 142r 4.6907390e+01 8.80e-03 1.34e+03  -7.1 2.30e+00    -  1.33e-01 1.62e-01f  1
 143r 4.6570568e+01 8.52e-03 1.34e+03  -3.5 1.44e+02    -  2.14e-03 2.34e-03f  1
 144r 4.6583276e+01 8.53e-03 1.56e+03  -5.2 1.28e+01    -  6.18e-03 9.91e-04h  1
 145r 4.6534383e+01 8.50e-03 1.30e+03  -6.1 2.57e+00    -  1.57e-01 1.90e-02f  1
 146r 4.5639100e+01 7.83e-03 8.90e+02  -5.8 3.42e+01    -  1.13e-02 2.62e-02f  1
 147r 4.5428656e+01 7.67e-03 1.04e+03  -4.7 2.24e+01    -  1.02e-01 9.41e-03h  1
 148r 4.5918088e+01 8.03e-03 7.75e+02  -5.2 5.49e+00    -  1.38e-01 8.92e-02h  1
 149r 4.5821723e+01 7.97e-03 7.19e+02  -5.2 2.09e+00    -  3.98e-02 4.61e-02f  1
iter    objective    inf_pr   inf_du lg(mu)  ||d||  lg(rg) alpha_du alpha_pr  ls
 150r 4.5613378e+01 7.82e-03 9.70e+02  -5.2 2.02e+00    -  1.62e-02 1.03e-01f  1
 151r 4.5363934e+01 7.64e-03 8.30e+02  -5.2 1.79e+00    -  1.09e-01 1.40e-01f  1
 152r 4.5120131e+01 7.49e-03 6.69e+02  -5.9 1.58e+00    -  2.62e-01 1.54e-01f  1
 153r 4.4484442e+01 7.00e-03 6.44e+02  -4.5 2.38e+01    -  1.17e-02 2.67e-02h  1
 154r 4.4484442e+01 7.00e-03 7.07e+02  -4.6 8.79e+00    -  8.50e-02 4.58e-10h 28
 155r 4.4963142e+01 7.36e-03 6.53e+02  -6.8 8.09e+00    -  1.97e-02 5.92e-02h  1
 156r 4.4929617e+01 7.34e-03 6.61e+02  -9.0 9.78e+01    -  6.39e-03 3.43e-04f  1
 157r 4.4510895e+01 7.01e-03 6.12e+02  -3.2 1.24e+03    -  7.69e-05 3.37e-04h  1
 158r 4.4537763e+01 7.03e-03 6.25e+02  -5.2 1.57e+01    -  1.98e-03 1.72e-03h  1
 159r 4.4492294e+01 6.99e-03 5.02e+02  -4.9 1.81e+00    -  1.55e-01 2.51e-02f  1
iter    objective    inf_pr   inf_du lg(mu)  ||d||  lg(rg) alpha_du alpha_pr  ls
 160r 4.4634174e+01 7.10e-03 5.29e+02  -5.2 4.57e+00    -  1.73e-02 3.11e-02h  1
 161r 4.4325852e+01 6.88e-03 2.85e+02  -5.2 1.49e+00    -  1.83e-02 2.08e-01f  1
 162r 4.4084686e+01 6.73e-03 2.25e+02  -5.7 1.21e+00    -  2.72e-01 1.99e-01f  1
 163r 4.3952117e+01 6.59e-03 2.19e+02  -3.7 1.35e+01    -  8.75e-03 9.79e-03f  1
 164r 4.3968140e+01 6.60e-03 2.45e+02  -5.2 1.47e+01    -  1.44e-02 1.09e-03h  4
 165r 4.3839330e+01 6.52e-03 4.29e+02  -5.2 4.33e-01    -  4.98e-03 2.97e-01f  1
 166r 4.3795670e+01 6.49e-03 3.58e+02  -5.2 3.05e-01    -  9.53e-02 1.43e-01f  1
 167r 4.3757262e+01 6.46e-03 6.98e+02  -5.2 2.56e-01    -  1.54e-03 1.50e-01f  1
 168r 4.3717997e+01 6.46e-03 5.93e+02  -9.0 2.64e-01    -  3.34e-01 1.49e-01f  1
 169r 4.3135770e+01 6.02e-03 5.96e+02  -4.1 1.22e+03    -  2.25e-04 4.77e-04h  1
iter    objective    inf_pr   inf_du lg(mu)  ||d||  lg(rg) alpha_du alpha_pr  ls
 170r 4.3189330e+01 6.06e-03 5.95e+02  -5.3 1.33e+01    -  7.44e-03 4.02e-03h  4
 171r 4.2611178e+01 5.66e-03 4.69e+02  -6.0 2.72e+00    -  1.87e-01 2.13e-01f  1
 172r 4.2381860e+01 5.48e-03 4.74e+02  -5.0 2.68e+01    -  2.13e-02 8.55e-03h  1
 173r 4.2641284e+01 5.68e-03 4.44e+02  -5.4 3.82e+00    -  1.13e-02 6.78e-02h  3
 174r 4.2474989e+01 5.56e-03 4.21e+02  -5.4 4.11e+00    -  1.93e-01 4.04e-02f  1
 175r 4.1982643e+01 5.20e-03 3.69e+02  -9.0 3.97e+00    -  1.51e-01 1.24e-01f  1
 176r 4.1292252e+01 4.68e-03 3.69e+02  -3.4 1.15e+03    -  4.78e-04 6.03e-04h  1
 177r 4.1312056e+01 4.69e-03 3.69e+02  -5.4 1.84e+01    -  2.45e-03 1.08e-03h  3
 178r 4.0972940e+01 4.44e-03 3.39e+02  -5.6 4.14e+00    -  1.57e-01 8.19e-02f  1
 179r 4.0482067e+01 4.06e-03 6.72e+02  -4.8 7.06e+00    -  3.11e-01 6.95e-02h  1
iter    objective    inf_pr   inf_du lg(mu)  ||d||  lg(rg) alpha_du alpha_pr  ls
 180r 4.0482067e+01 4.06e-03 3.85e+02  -4.7 9.53e+00    -  2.15e-01 5.56e-11h 30
 181r 4.0482067e+01 4.06e-03 3.91e+02  -5.3 1.05e+01    -  2.23e-02 1.74e-11h 33
 182r 4.0612936e+01 4.16e-03 4.70e+02  -5.5 1.24e+00    -  5.53e-01 1.05e-01h  1
 183r 4.0176983e+01 3.83e-03 3.83e+02  -5.4 6.37e+00    -  9.69e-02 6.84e-02f  1
 184r 3.9498847e+01 3.40e-03 1.45e+02  -6.4 1.05e+00    -  5.79e-01 6.45e-01f  1
 185r 3.9426066e+01 3.34e-03 3.33e+02  -9.0 4.73e+01    -  6.41e-03 1.54e-03f  1
 186r 3.9223429e+01 3.19e-03 2.91e+02  -3.7 1.34e+03    -  9.84e-05 1.51e-04h  1
 187r 3.9237057e+01 3.20e-03 2.91e+02  -5.7 1.97e+01    -  3.30e-03 6.93e-04h  2
 188r 3.8991298e+01 3.01e-03 2.83e+02  -5.7 1.20e+01    -  4.26e-02 2.04e-02f  1
 189r 3.8907912e+01 2.91e-03 2.92e+02  -3.6 9.77e+00    -  5.96e-03 8.54e-03f  1
iter    objective    inf_pr   inf_du lg(mu)  ||d||  lg(rg) alpha_du alpha_pr  ls
 190r 3.8951886e+01 2.94e-03 2.92e+02  -5.5 1.98e+01    -  2.13e-03 2.22e-03h  3
 191r 3.8672927e+01 2.73e-03 2.55e+02  -5.5 3.31e+00    -  6.07e-02 8.43e-02f  1
 192r 3.8378789e+01 2.52e-03 2.91e+02  -9.0 3.06e+00    -  2.13e-01 9.62e-02f  1
 193r 3.7643203e+01 1.96e-03 2.33e+02  -3.5 1.20e+03    -  2.12e-04 6.12e-04h  1
 194r 3.7692602e+01 1.99e-03 2.32e+02  -5.5 2.18e+01    -  3.40e-03 2.26e-03h  2
 195r 3.7360059e+01 1.75e-03 7.80e+02  -5.6 3.59e+00    -  1.00e+00 9.27e-02f  1
 196r 3.7320955e+01 1.71e-03 8.08e+02  -4.5 5.70e+00    -  6.14e-02 6.86e-03f  1
 197r 3.7370093e+01 1.72e-03 8.12e+02  -5.5 1.07e+01    -  4.40e-04 4.59e-03h  1
 198r 3.7364971e+01 1.72e-03 3.91e+02  -5.5 2.03e+00    -  5.05e-01 2.53e-03f  1
 199r 3.7320269e+01 1.72e-03 3.98e+02  -5.5 1.31e+00    -  4.70e-02 3.40e-02f  1
iter    objective    inf_pr   inf_du lg(mu)  ||d||  lg(rg) alpha_du alpha_pr  ls
 200r 3.7308508e+01 1.72e-03 4.08e+02  -5.5 4.08e-01    -  5.04e-02 2.88e-02f  1
 201r 3.7296835e+01 1.72e-03 3.84e+02  -5.5 1.87e-01    -  6.46e-02 6.24e-02f  1
 202r 3.7285264e+01 1.71e-03 4.83e+02  -5.6 8.84e-02    -  3.26e-01 1.31e-01f  1
 203r 3.7277273e+01 1.71e-03 4.42e+02  -6.3 9.36e-02    -  1.77e-01 8.53e-02f  1
 204r 3.7272449e+01 1.71e-03 4.20e+02  -5.1 1.12e-01    -  5.77e-02 4.31e-02f  1
 205r 3.7272731e+01 1.71e-03 4.07e+02  -5.6 6.84e-02    -  2.97e-02 4.12e-03h  1
 206r 3.7258827e+01 1.71e-03 7.49e+02  -5.6 2.16e-02    -  4.27e-02 6.45e-01f  1
 207r 3.7258579e+01 1.71e-03 6.99e+02  -5.6 7.15e-03    -  2.45e-01 8.66e-02f  1
 208r 3.7258133e+01 1.71e-03 2.87e+02  -5.6 2.00e-03    -  5.78e-01 5.89e-01f  1
 209r 3.7257311e+01 1.71e-03 3.43e+02  -5.6 2.74e-03    -  1.14e-01 5.56e-01f  1
iter    objective    inf_pr   inf_du lg(mu)  ||d||  lg(rg) alpha_du alpha_pr  ls
 210r 3.7257311e+01 1.71e-03 3.51e+02  -5.6 8.39e-03    -  2.68e-01 2.74e-03f  7
 211r 3.7256974e+01 1.70e-03 1.34e+02  -5.6 1.39e-03    -  1.00e+00 6.35e-01h  1
 212r 3.7256971e+01 1.70e-03 1.98e+02  -5.6 8.67e-04    -  1.00e+00 3.12e-02f  6
 213r 3.7257037e+01 1.70e-03 2.73e+02  -5.6 4.78e-03    -  3.20e-01 7.10e-02h  3
 214r 3.7256846e+01 1.71e-03 2.11e-06  -5.6 2.45e-04    -  1.00e+00 1.00e+00h  1
 215r 3.7248771e+01 1.72e-03 7.46e+01  -9.0 1.57e-02    -  7.16e-01 5.14e-01f  1
 216r 3.7250255e+01 1.71e-03 2.87e+02  -4.2 3.01e-01    -  4.10e-02 4.94e-03f  1
 217r 3.7250305e+01 1.71e-03 2.86e+02  -5.8 8.68e-02    -  3.99e-03 5.73e-04h  5
 218r 3.7250309e+01 1.71e-03 8.05e+02  -5.8 5.28e-03    -  1.16e-01 3.35e-03h  3
 219r 3.7249015e+01 1.71e-03 2.43e+02  -5.8 5.12e-03    -  4.56e-02 2.53e-01f  1
iter    objective    inf_pr   inf_du lg(mu)  ||d||  lg(rg) alpha_du alpha_pr  ls
 220r 3.7248502e+01 1.71e-03 2.24e+02  -5.8 1.36e-02    -  7.78e-02 7.89e-02f  1
 221r 3.7248515e+01 1.71e-03 4.23e+02  -5.8 3.64e-03    -  9.77e-02 3.57e-03f  4
 222r 3.7247573e+01 1.71e-03 1.56e+02  -5.8 2.99e-03    -  2.26e-01 3.14e-01h  1
 223r 3.7247124e+01 1.71e-03 1.44e+02  -5.8 5.80e-03    -  7.79e-02 7.74e-02f  1
 224r 3.7246438e+01 1.71e-03 1.30e+02  -5.8 6.32e-03    -  1.02e-01 1.09e-01f  1
 225r 3.7246243e+01 1.70e-03 1.06e+02  -5.8 3.97e-04    -  4.90e-01 5.42e-01f  1
 226r 3.7245549e+01 1.70e-03 1.01e+02  -5.8 6.42e-03    -  1.26e-01 1.12e-01f  1
 227r 3.7245769e+01 1.70e-03 1.10e+02  -5.8 4.77e-03    -  1.31e-02 2.16e-01f  1
 228r 3.7245772e+01 1.70e-03 6.88e+02  -5.8 7.62e-04    -  1.00e+00 3.12e-02f  6
 229r 3.7245368e+01 1.70e-03 4.14e-07  -5.8 4.04e-04    -  1.00e+00 1.00e+00h  1
iter    objective    inf_pr   inf_du lg(mu)  ||d||  lg(rg) alpha_du alpha_pr  ls
 230r 3.7242210e+01 1.71e-03 9.03e+01  -9.0 5.58e-03    -  9.03e-01 5.66e-01f  1
 231r 3.7241827e+01 1.71e-03 2.36e+02  -9.0 9.91e-03    -  2.32e-02 3.86e-02f  1
 232r 3.7241951e+01 1.71e-03 2.54e+02  -4.3 1.64e+00    -  9.13e-03 2.67e-03f  1
 233r 3.7242058e+01 1.71e-03 2.54e+02  -6.2 5.06e-01    -  1.09e-03 1.09e-03s 13
 234r 3.7242057e+01 1.71e-03 2.54e+02  -6.2 9.19e-03    -  2.70e-04 2.70e-04s 13
 235r 3.7242055e+01 1.71e-03 2.53e+02  -6.2 1.15e-02    -  6.59e-04 6.59e-04s 13
 236r 3.7242047e+01 1.71e-03 2.53e+02  -6.2 9.10e-03    -  2.14e-03 2.14e-03s 13
 237r 3.7242029e+01 1.71e-03 2.52e+02  -6.2 1.35e-02    -  3.92e-03 3.92e-03s 13
 238r 3.7242003e+01 1.71e-03 2.51e+02  -6.2 2.74e-02    -  4.09e-03 4.09e-03s 13
 239r 3.7241951e+01 1.71e-03 2.44e+02  -6.2 5.73e-02    -  4.84e-03 0.00e+00S 13
iter    objective    inf_pr   inf_du lg(mu)  ||d||  lg(rg) alpha_du alpha_pr  ls
 240r 3.7241785e+01 1.70e-03 2.41e+02  -6.2 7.31e-02    -  1.39e-02 1.25e-02f  1
 241r 3.7241421e+01 1.70e-03 2.02e+02  -6.2 4.29e-03    -  1.68e-01 1.64e-01f  1
 242r 3.7241168e+01 1.70e-03 1.97e+02  -6.2 6.48e-02    -  2.17e-02 2.16e-02f  1
 243r 3.7240897e+01 1.70e-03 1.75e+02  -6.2 3.46e-03    -  8.22e-02 1.13e-01f  1
 244r 3.7240882e+01 1.70e-03 2.53e+02  -6.2 6.73e-03    -  7.42e-02 6.38e-03f  1
 245r 3.7240489e+01 1.70e-03 2.93e+02  -6.2 3.03e-03    -  1.72e-01 2.89e-01f  1
 246r 3.7240195e+01 1.69e-03 2.65e+02  -6.2 2.54e-02    -  1.22e-02 5.57e-02f  1
 247r 3.7239987e+01 1.70e-03 1.85e+02  -6.2 2.01e-03    -  3.08e-01 3.01e-01f  1
 248r 3.7239618e+01 1.69e-03 1.79e+02  -6.2 3.59e-02    -  3.09e-02 4.27e-02f  1
 249r 3.7239255e+01 1.69e-03 1.74e+02  -6.2 1.13e-02    -  2.73e-02 3.23e-02f  1
iter    objective    inf_pr   inf_du lg(mu)  ||d||  lg(rg) alpha_du alpha_pr  ls
 250r 3.7239223e+01 1.69e-03 5.34e+02  -6.2 1.28e-03    -  1.91e-01 4.21e-01f  1
 251r 3.7238468e+01 1.69e-03 2.18e+02  -6.2 3.45e-03    -  3.45e-01 2.19e-01f  1
 252r 3.7238404e+01 1.69e-03 2.43e+02  -6.2 1.18e-02    -  1.48e-01 3.39e-02f  1
 253r 3.7238204e+01 1.69e-03 5.67e+02  -6.2 5.54e-04    -  2.99e-01 9.83e-01f  1
 254r 3.7238067e+01 1.69e-03 4.84e+02  -6.2 5.63e-03    -  7.67e-02 1.48e-01f  1
 255r 3.7238069e+01 1.69e-03 6.17e+02  -6.2 5.09e-04    -  1.00e+00 1.56e-02f  7
 256r 3.7238083e+01 1.69e-03 5.15e-07  -6.2 2.65e-05    -  1.00e+00 1.00e+00h  1
 257r 3.7237396e+01 1.69e-03 5.49e+00  -7.1 2.03e-03    -  9.97e-01 9.41e-01f  1
 258r 3.7238362e+01 1.68e-03 4.60e+00  -5.0 2.41e-01    -  6.81e-02 6.76e-02f  1
 259r 3.7238362e+01 1.68e-03 8.76e+01  -6.2 1.85e-01    -  7.93e-03 2.28e-09h 18
iter    objective    inf_pr   inf_du lg(mu)  ||d||  lg(rg) alpha_du alpha_pr  ls
 260r 3.7238310e+01 1.69e-03 3.63e+02  -6.2 1.31e-02    -  1.00e+00 3.05e-01f  1
 261r 3.7238152e+01 1.69e-03 4.08e-07  -6.2 1.06e-02    -  1.00e+00 1.00e+00f  1
 262r 3.7237401e+01 1.69e-03 4.54e+00  -7.1 1.99e-03    -  9.96e-01 9.51e-01f  1
 263r 3.7237378e+01 1.69e-03 1.18e+01  -7.1 3.66e-04    -  8.61e-02 8.44e-02f  1
 264r 3.7237138e+01 1.69e-03 1.16e+01  -6.7 1.30e-01    -  1.17e-02 1.16e-02f  1
 265r 3.7237136e+01 1.69e-03 2.19e+02  -7.1 1.72e-02    -  8.24e-02 8.80e-04h  1
 266r 3.7237074e+01 1.69e-03 2.58e+02  -9.0 2.21e-03    -  1.06e-01 1.91e-01f  1
 267r 3.7235878e+01 1.69e-03 9.30e+02  -6.3 3.61e-02    -  1.89e-02 9.68e-02f  1
 268r 3.7236204e+01 1.69e-03 7.08e+02  -7.0 4.83e-03    -  3.12e-02 1.80e-01h  1
 269r 3.7235866e+01 1.69e-03 6.87e+02  -7.0 2.69e-02    -  1.51e-02 1.25e-02f  1
iter    objective    inf_pr   inf_du lg(mu)  ||d||  lg(rg) alpha_du alpha_pr  ls
 270r 3.7235773e+01 1.69e-03 6.60e+02  -7.0 2.57e-01    -  1.13e-04 4.11e-03f  1
 271r 3.7235669e+01 1.69e-03 6.59e+02  -7.0 2.75e-01    -  4.76e-03 3.75e-04f  1
 272r 3.7235668e+01 1.69e-03 6.56e+02  -7.0 2.56e-03    -  8.57e-02 4.90e-03f  1
 273r 3.7235562e+01 1.68e-03 5.92e+02  -7.0 4.95e-03    -  2.47e-03 9.69e-02f  1
 274r 3.7235546e+01 1.68e-03 4.41e+02  -7.0 2.26e-03    -  2.69e-01 2.55e-01f  1
 275r 3.7235249e+01 1.68e-03 4.32e+02  -7.0 7.59e-02    -  5.08e-03 2.18e-02f  1
 276r 3.7235306e+01 1.68e-03 2.80e+02  -7.0 1.58e-03    -  3.75e-01 3.53e-01f  1
 277r 3.7234959e+01 1.68e-03 2.73e+02  -7.0 5.89e-02    -  9.00e-03 2.66e-02f  1
 278r 3.7234105e+01 1.68e-03 2.72e+02  -7.0 3.02e-01    -  5.30e-03 2.83e-03f  1
 279r 3.7233971e+01 1.68e-03 9.32e+02  -7.0 1.08e-03    -  7.88e-03 4.48e-01f  1
iter    objective    inf_pr   inf_du lg(mu)  ||d||  lg(rg) alpha_du alpha_pr  ls
 280r 3.7233581e+01 1.68e-03 8.64e+02  -7.0 3.48e-02    -  5.56e-02 1.12e-02f  1
 281r 3.7233569e+01 1.68e-03 2.22e+02  -7.0 1.39e-03    -  6.30e-01 5.98e-02f  1
 282r 3.7233500e+01 1.68e-03 2.34e+02  -7.0 2.48e-02    -  7.78e-02 1.31e-02f  1
 283r 3.7233469e+01 1.68e-03 2.46e+02  -7.0 4.73e-04    -  5.71e-01 1.00e+00f  1
 284r 3.7233418e+01 1.68e-03 2.02e+02  -7.0 2.96e-04    -  1.09e-01 6.45e-01h  1
 285r 3.7233172e+01 1.67e-03 1.31e+02  -7.0 1.34e-03    -  9.16e-02 8.01e-01f  1
 286r 3.7233173e+01 1.67e-03 1.82e+02  -7.0 7.16e-04    -  1.00e+00 3.91e-03f  9
 287r 3.7233159e+01 1.67e-03 7.70e-08  -7.0 1.42e-05    -  1.00e+00 1.00e+00h  1
 288r 3.7233221e+01 1.67e-03 1.60e+00  -8.1 1.79e-03    -  9.98e-01 8.99e-01f  1
 289r 3.7233219e+01 1.67e-03 5.00e+01  -8.0 3.15e-04    -  4.95e-02 7.14e-02f  1
iter    objective    inf_pr   inf_du lg(mu)  ||d||  lg(rg) alpha_du alpha_pr  ls
 290r 3.7231570e+01 1.67e-03 4.85e+01  -8.0 1.19e-01    -  1.41e-02 1.39e-02f  1
 291r 3.7232804e+01 1.67e-03 1.11e+03  -8.0 2.16e-03    -  2.53e-02 5.72e-01f  1
 292r 3.7231142e+01 1.67e-03 1.14e+03  -8.0 2.06e-02    -  2.28e-02 8.08e-02f  1
 293r 3.7229127e+01 1.67e-03 8.10e+02  -8.0 6.04e-03    -  3.05e-01 3.34e-01f  1
 294r 3.7228854e+01 1.67e-03 7.97e+02  -8.0 6.33e-02    -  1.47e-02 1.61e-02f  1
 295r 3.7228178e+01 1.67e-03 5.29e+02  -8.0 2.00e-03    -  2.45e-01 3.38e-01f  1
 296r 3.7228165e+01 1.67e-03 3.98e+02  -8.0 1.60e-03    -  7.40e-01 2.47e-01f  1
 297r 3.7228075e+01 1.67e-03 3.93e+02  -8.0 3.50e-02    -  7.97e-02 1.17e-02h  1
 298r 3.7228467e+01 1.66e-03 1.71e+02  -8.0 6.95e-04    -  3.71e-01 5.64e-01f  1
 299r 3.7227603e+01 1.66e-03 1.15e+02  -8.0 2.63e-03    -  2.76e-01 3.28e-01f  1
iter    objective    inf_pr   inf_du lg(mu)  ||d||  lg(rg) alpha_du alpha_pr  ls
 300r 3.7227603e+01 1.66e-03 1.15e+02  -8.0 3.99e-03    -  1.00e+00 1.29e-04f 10
 301r 3.7228654e+01 1.66e-03 5.86e+01  -8.0 2.14e-03    -  1.00e+00 4.92e-01h  1
 302r 3.7228654e+01 1.66e-03 5.85e+01  -8.0 1.60e-03    -  1.00e+00 4.88e-04f 12
 303r 3.7230374e+01 1.66e-03 1.27e-06  -8.0 1.72e-03    -  1.00e+00 1.00e+00h  1
 304r 3.7230516e+01 1.66e-03 5.44e+00  -8.0 1.42e-04    -  6.49e-01 1.00e+00h  1
 305r 3.7230287e+01 1.66e-03 8.05e-08  -8.0 2.28e-04    -  1.00e+00 1.00e+00h  1
 306r 3.7230555e+01 1.66e-03 4.04e+00  -9.0 1.08e-03    -  9.94e-01 8.48e-01f  1
 307r 3.7229588e+01 1.66e-03 1.09e+02  -9.0 1.22e-02    -  3.99e-02 7.93e-02f  1
 308r 3.7228070e+01 1.66e-03 4.62e+02  -9.0 1.02e-02    -  4.25e-04 1.49e-01h  1
 309r 3.7227310e+01 1.66e-03 2.67e+02  -7.5 5.30e-03  -2.0 8.61e-01 1.43e-01f  1
iter    objective    inf_pr   inf_du lg(mu)  ||d||  lg(rg) alpha_du alpha_pr  ls
 310r 3.7227407e+01 1.66e-03 3.87e+02  -8.0 4.10e-01    -  1.49e-02 2.37e-04h  1
 311r 3.7227409e+01 1.66e-03 7.71e+02  -8.0 1.12e-02    -  5.46e-01 1.58e-04f 12
 312r 3.7227409e+01 1.66e-03 4.08e+02  -8.0 3.73e-04  -1.6 4.76e-01 6.55e-04h  1
 313r 3.7227319e+01 1.67e-03 3.50e+01  -8.0 9.44e-04  -2.1 8.57e-01 1.00e+00f  1
 314r 3.7228426e+01 1.67e-03 3.28e-06  -8.0 1.11e-03  -2.5 1.00e+00 1.00e+00h  1
 315r 3.7231092e+01 1.67e-03 2.39e+01  -8.0 3.06e-03  -3.0 1.00e+00 8.71e-01h  1
 316r 3.7229946e+01 1.66e-03 1.25e-06  -8.0 1.15e-03    -  1.00e+00 1.00e+00f  1
 317r 3.7230146e+01 1.66e-03 2.18e+02  -8.0 4.03e-03  -3.5 9.12e-01 4.97e-02h  3
 318r 3.7230009e+01 1.66e-03 7.08e+01  -8.0 4.38e-04  -1.3 1.00e+00 6.45e-01h  1
 319r 3.7230009e+01 1.66e-03 4.24e+01  -8.0 1.10e-03    -  4.08e-01 3.36e-04f 11
iter    objective    inf_pr   inf_du lg(mu)  ||d||  lg(rg) alpha_du alpha_pr  ls
 320r 3.7230293e+01 1.67e-03 1.14e+02  -8.0 6.93e-04    -  1.00e+00 4.49e-01h  2
 321r 3.7230591e+01 1.67e-03 5.90e+01  -8.0 6.66e-04    -  1.00e+00 5.48e-01H  1
 322r 3.7230279e+01 1.66e-03 5.23e+01  -8.0 1.39e-04    -  1.76e-01 7.01e-01F  1

Number of Iterations....: 322

                                   (scaled)                 (unscaled)
Objective...............:   3.7230100951010009e+01    3.7230100951010009e+01
Dual infeasibility......:   1.0000500076396552e+00    1.0000500076396552e+00
Constraint violation....:   1.6644263746880058e-03    1.6644263746880058e-03
Complementarity.........:   1.0773811069772938e-08    1.0773811069772938e-08
Overall NLP error.......:   1.6644263746880058e-03    1.0000500076396552e+00


Number of objective function evaluations             = 999
Number of objective gradient evaluations             = 69
Number of equality constraint evaluations            = 999
Number of inequality constraint evaluations          = 999
Number of equality constraint Jacobian evaluations   = 324
Number of inequality constraint Jacobian evaluations = 324
Number of Lagrangian Hessian evaluations             = 323
Total CPU secs in IPOPT (w/o function evaluations)   =   8311.514
Total CPU secs in NLP function evaluations           =    446.206

EXIT: Converged to a point of local infeasibility. Problem may be infeasible.
